peakDumbCharging = 7400; 
Machine = anon_enum(16); 
machineSpeed = [3700,3700,3700,3700,3700,3700,3700,3700,3700,3700,3700,3700,3700,3700,3700,3700]; 
machineLoad = [3700,3700,3700,3700,3700,3700,3700,3700,3700,3700,3700,3700,3700,3700,3700,3700]; 
Car = anon_enum(7); 
demandCar = [13680,18920,2000,12880,7320,5440,11560]; 
arrivalCar = [75,73,64,55,46,46,34]; 
departureCar = [80,79,68,64,49,48,38]; 
